WARNING: for repeatability, setting FPU to use double precision
============================[ Problem Statistics ]=============================
|                                                                             |
|  Number of variables:           100                                         |
|  Number of clauses:             449                                         |
|  Parse time:                   0.00 s                                       |
|  Simplification time:          0.00 s                                       |
|                                                                             |
============================[ Search Statistics ]==============================
| Conflicts |          ORIGINAL         |          LEARNT          | Progress |
|           |    Vars  Clauses Literals |    Limit  Clauses Lit/Cl |          |
===============================================================================
|       100 |     100      449     1347 |      164      100      7 |  0.010 % |
===============================================================================
restarts              : 2
conflicts             : 149            (58592 /sec)
decisions             : 199            (0.00 % random) (78254 /sec)
propagations          : 3255           (1279984 /sec)
conflict literals     : 1041           (14.25 % deleted)
Memory used           : 13.00 MB
CPU time              : 0.002543 s

SATISFIABLE
